10  10
   2  41   1   9   4  88   0  85   3  48   6  27   8  54   9  91   7  98   5  13 814   3  10
   3  69   0  61   1  62   4  99   2  75   5   7   8  67   7   3   9  70   6  19 843   9  11
   0  11   1   3   2   2   3   4   4  31   9  85   5  82   6  75   7  89   8  20 1121  13   4
   2  48   4  82   0  11   1  84   3   6   9  99   8  60   7  23   5  85   6  93 887  19  12
   0  16   3  63   4  75   2  53   1  92   9  88   6   2   8  40   7  47   5  44 1003  20  15
   3  70   4  86   2  17   1  88   0  20   9  94   6  14   7  27   8  41   5  68 861  20   7
   0   5   2  38   3  49   4  74   1  84   7  52   5  40   9  75   6  55   8   3 1134   6   6
   0  19   4  96   3  41   2  18   1  76   5  16   7  34   9  67   8   1   6  90 944   9   5
   4  81   0  94   1  82   2  90   3  61   5   3   8  71   6  43   7  35   9  19 1187  16   8
   3  76   0  58   1  42   2  49   4  90   9  84   7  27   8  42   6  25   5  87 1008   2  19
